n_res = 4;
rc = [ 13, 15, 15, 14 ];
n_tasks = 30;
d = [ 8, 4, 2, 5, 9, 7, 7, 7, 6, 8, 10, 5, 3, 4, 10, 10, 10, 5, 4, 1, 6, 1, 9, 4, 9, 3, 4, 10, 5, 9 ];
rr = [| 10, 7, 1, 5, 4, 4, 8, 0, 7, 1, 1, 7, 1, 0, 4, 3, 7, 0, 2, 3, 9, 4, 8, 0, 6, 2, 1, 10, 0, 8
      | 3, 8, 8, 0, 8, 3, 10, 2, 0, 8, 7, 2, 7, 9, 2, 4, 3, 2, 10, 4, 10, 0, 2, 5, 3, 0, 7, 4, 10, 5
      | 2, 0, 10, 3, 0, 0, 4, 0, 3, 0, 0, 0, 10, 3, 0, 7, 1, 9, 9, 6, 5, 10, 0, 7, 9, 10, 9, 0, 0, 9
      | 10, 1, 0, 7, 2, 8, 8, 0, 0, 5, 8, 0, 3, 7, 3, 6, 3, 1, 8, 2, 0, 4, 8, 0, 0, 0, 3, 0, 4, 9 |];
suc = [ { 2 }, 
        { 3 }, 
        { 4 }, 
        { 5 }, 
        { 6 }, 
        { 7 }, 
        { 8 }, 
        { 9 }, 
        { 10 }, 
        { 11 }, 
        { 12 }, 
        { 13 }, 
        { 14 }, 
        { 15 }, 
        { 16 }, 
        { 17 }, 
        { 18 }, 
        { 19 }, 
        { 20 }, 
        { 21 }, 
        { 22 }, 
        { 23 }, 
        { 24 }, 
        { 25 }, 
        { 26 }, 
        { 27 }, 
        { 28 }, 
        { 29 }, 
        { 30 }, 
        {  }]; 
